
Gurobi 7.5.2 (linux64) logging started Sat Jul  7 16:02:39 2018

Changed value of parameter LogFile to result/ilp/simNo_9-n_100-m_40-s_4-minVAF_0.05-cov_10000-k_2-fn_0.25-fp_0.0001-na_0.15.ILP.gurobiSolverLog
   Prev: gurobi.log  Default: 
Changed value of parameter TimeLimit to 86400.0
   Prev: 1e+100  Min: 0.0  Max: 1e+100  Default: 1e+100
Optimize a model with 639293 rows, 10765 columns and 1940420 nonzeros
Variable types: 0 continuous, 10765 integer (10765 binary)
Coefficient statistics:
  Matrix range     [2e-04, 4e+00]
  Objective range  [1e+00, 2e+01]
  Bounds range     [1e+00, 1e+00]
  RHS range        [3e-01, 2e+00]
Found heuristic solution: objective -11664.32919
Presolve removed 130890 rows and 985 columns (presolve time = 5s) ...
Presolve removed 132209 rows and 1025 columns (presolve time = 10s) ...
Presolve removed 132789 rows and 1025 columns (presolve time = 17s) ...
Presolve removed 190789 rows and 1605 columns (presolve time = 20s) ...
Presolve removed 190789 rows and 1605 columns
Presolve time: 24.57s
Presolved: 448504 rows, 9160 columns, 1348165 nonzeros
Variable types: 0 continuous, 9160 integer (9160 binary)
Presolved: 9160 rows, 457664 columns, 1357325 nonzeros

Presolve removed 9160 rows and 457664 columns

Root simplex log...

Iteration    Objective       Primal Inf.    Dual Inf.      Time
       0    3.3024536e+01   0.000000e+00   5.843200e+04     29s
    9007   -1.5537949e+02   0.000000e+00   1.645605e+05     30s
   28688   -3.2838950e+02   0.000000e+00   2.010466e+05     35s
   43331   -3.6245750e+02   0.000000e+00   1.750084e+05     40s
   56028   -3.8249209e+02   0.000000e+00   5.441599e+04     45s
   59305   -3.8516948e+02   0.000000e+00   0.000000e+00     48s
   59305   -3.8516948e+02   0.000000e+00   0.000000e+00     49s

Root relaxation: objective -3.851695e+02, 59305 iterations, 22.64 seconds
Total elapsed time = 50.51s
Total elapsed time = 113.45s
Total elapsed time = 185.92s
Total elapsed time = 214.37s

    Nodes    |    Current Node    |     Objective Bounds      |     Work
 Expl Unexpl |  Obj  Depth IntInf | Incumbent    BestBd   Gap | It/Node Time

     0     0 -385.16948    0 1042 -11664.329 -385.16948  96.7%     -  225s
H    0     0                    -527.7619223 -385.16948  27.0%     -  229s
H    0     0                    -470.1104022 -385.16948  18.1%     -  233s
     0     0 -389.26452    0 1227 -470.11040 -389.26452  17.2%     -  733s
     0     0 -389.26452    0 1218 -470.11040 -389.26452  17.2%     -  746s
     0     0 -391.86719    0 1271 -470.11040 -391.86719  16.6%     - 3382s
H    0     0                    -462.9572348 -391.86719  15.4%     - 3410s
     0     0 -392.18000    0 1358 -462.95723 -392.18000  15.3%     - 3840s
     0     0 -392.37603    0 1352 -462.95723 -392.37603  15.2%     - 4310s
     0     0 -392.44078    0 1345 -462.95723 -392.44078  15.2%     - 4389s
     0     0 -392.48033    0 1429 -462.95723 -392.48033  15.2%     - 4499s
     0     0 -392.49084    0 1440 -462.95723 -392.49084  15.2%     - 4521s
     0     0 -392.49470    0 1439 -462.95723 -392.49470  15.2%     - 4549s
     0     0 -392.50179    0 1347 -462.95723 -392.50179  15.2%     - 4566s
     0     0 -392.50743    0 1434 -462.95723 -392.50743  15.2%     - 4595s
     0     0 -392.51898    0 1440 -462.95723 -392.51898  15.2%     - 4639s
     0     0 -392.52211    0 1440 -462.95723 -392.52211  15.2%     - 4653s
     0     0 -394.56876    0  864 -462.95723 -394.56876  14.8%     - 8256s
H    0     0                    -452.8677343 -394.56876  12.9%     - 8270s
     0     0 -394.92731    0 1230 -452.86773 -394.92731  12.8%     - 9553s
     0     0 -394.92731    0 1234 -452.86773 -394.92731  12.8%     - 9560s
     0     0 -395.85063    0 1275 -452.86773 -395.85063  12.6%     - 11318s
     0     0 -395.91089    0 1347 -452.86773 -395.91089  12.6%     - 11564s
     0     0 -395.93596    0 1354 -452.86773 -395.93596  12.6%     - 11625s
     0     0 -395.93602    0 1353 -452.86773 -395.93602  12.6%     - 11659s
     0     0 -396.16976    0 1359 -452.86773 -396.16976  12.5%     - 12495s
     0     0 -396.16976    0 1359 -452.86773 -396.16976  12.5%     - 12511s
     0     0 -397.28126    0 1300 -452.86773 -397.28126  12.3%     - 14944s
     0     0 -397.28126    0 1301 -452.86773 -397.28126  12.3%     - 14958s
     0     0 -398.22150    0 1343 -452.86773 -398.22150  12.1%     - 26520s
     0     0 -398.40033    0 1357 -452.86773 -398.40033  12.0%     - 26566s
     0     0 -398.51821    0 1375 -452.86773 -398.51821  12.0%     - 26686s
     0     0 -398.52108    0 1378 -452.86773 -398.52108  12.0%     - 26711s
     0     0 -399.61321    0 1376 -452.86773 -399.61321  11.8%     - 27869s
     0     0 -399.66412    0 1370 -452.86773 -399.66412  11.7%     - 27961s
     0     0 -399.67481    0 1377 -452.86773 -399.67481  11.7%     - 28013s
     0     0 -399.70508    0 1377 -452.86773 -399.70508  11.7%     - 28033s
     0     0 -399.70508    0 1385 -452.86773 -399.70508  11.7%     - 28038s
     0     0 -400.62219    0 1327 -452.86773 -400.62219  11.5%     - 30044s
     0     0 -400.72225    0 1381 -452.86773 -400.72225  11.5%     - 30196s
     0     0 -400.86776    0 1383 -452.86773 -400.86776  11.5%     - 30747s
     0     0 -400.86776    0 1386 -452.86773 -400.86776  11.5%     - 30752s
     0     0 -402.64888    0 1203 -452.86773 -402.64888  11.1%     - 39565s
     0     0 -402.79387    0 1311 -452.86773 -402.79387  11.1%     - 39764s
     0     0 -402.84498    0 1326 -452.86773 -402.84498  11.0%     - 40125s
     0     0 -402.84498    0 1324 -452.86773 -402.84498  11.0%     - 40130s
     0     0 -403.45001    0 1327 -452.86773 -403.45001  10.9%     - 43318s
     0     0 -403.46669    0 1325 -452.86773 -403.46669  10.9%     - 43346s
     0     0 -403.48024    0 1327 -452.86773 -403.48024  10.9%     - 43491s
     0     0 -403.48126    0 1333 -452.86773 -403.48126  10.9%     - 43520s
     0     0 -404.36190    0 1310 -452.86773 -404.36190  10.7%     - 44998s
     0     0 -404.46346    0 1316 -452.86773 -404.46346  10.7%     - 45213s
     0     0 -404.51216    0 1323 -452.86773 -404.51216  10.7%     - 45309s
     0     0 -404.53805    0 1321 -452.86773 -404.53805  10.7%     - 45438s
     0     0 -404.55334    0 1325 -452.86773 -404.55334  10.7%     - 45682s
     0     0 -404.55883    0 1318 -452.86773 -404.55883  10.7%     - 45696s
     0     0 -405.79732    0 1234 -452.86773 -405.79732  10.4%     - 52241s
     0     0 -405.93270    0 1298 -452.86773 -405.93270  10.4%     - 52679s
     0     0 -405.99200    0 1464 -452.86773 -405.99200  10.4%     - 58797s
     0     0 -405.99261    0 1372 -452.86773 -405.99261  10.4%     - 58809s
     0     0 -407.09702    0 1366 -452.86773 -407.09702  10.1%     - 61258s
     0     0 -407.12158    0 1372 -452.86773 -407.12158  10.1%     - 61333s
     0     0 -407.12336    0 1373 -452.86773 -407.12336  10.1%     - 61346s
     0     0 -407.45447    0 1289 -452.86773 -407.45447  10.0%     - 63290s
     0     0 -407.45649    0 1360 -452.86773 -407.45649  10.0%     - 63334s
     0     0 -408.19074    0 1397 -452.86773 -408.19074  9.87%     - 69447s
     0     0 -408.44451    0 1407 -452.86773 -408.44451  9.81%     - 70146s
     0     0 -408.45182    0 1406 -452.86773 -408.45182  9.81%     - 70253s
     0     0 -408.45762    0 1458 -452.86773 -408.45762  9.81%     - 70317s
     0     0 -408.45929    0 1459 -452.86773 -408.45929  9.81%     - 70333s
     0     0 -409.58334    0 1361 -452.86773 -409.58334  9.56%     - 73636s
     0     0 -409.60327    0 1368 -452.86773 -409.60327  9.55%     - 73762s
     0     0 -409.61883    0 1362 -452.86773 -409.61883  9.55%     - 73905s
     0     0 -409.62317    0 1363 -452.86773 -409.62317  9.55%     - 73917s
     0     0 -409.62317    0 1366 -452.86773 -409.62317  9.55%     - 73920s
     0     0 -409.69876    0 1362 -452.86773 -409.69876  9.53%     - 73945s
     0     0 -410.10753    0 1359 -452.86773 -410.10753  9.44%     - 76159s
     0     0 -410.17780    0 1357 -452.86773 -410.17780  9.43%     - 76523s
     0     0 -410.22516    0 1357 -452.86773 -410.22516  9.42%     - 78391s
     0     0 -410.22943    0 1362 -452.86773 -410.22943  9.42%     - 78416s
     0     0 -410.22943    0 1359 -452.86773 -410.22943  9.42%     - 78421s
     0     0 -410.78171    0 1454 -452.86773 -410.78171  9.29%     - 79762s
     0     0 -410.93053    0 1450 -452.86773 -410.93053  9.26%     - 81470s
     0     0 -410.98496    0 1360 -452.86773 -410.98496  9.25%     - 82403s
     0     0 -410.98862    0 1363 -452.86773 -410.98862  9.25%     - 82420s
     0     0 -410.98960    0 1369 -452.86773 -410.98960  9.25%     - 82435s
     0     0 -411.27481    0 1693 -452.86773 -411.27481  9.18%     - 83951s
     0     0 -411.31368    0 1459 -452.86773 -411.31368  9.18%     - 84256s
     0     0 -411.31560    0 1465 -452.86773 -411.31560  9.18%     - 84405s
     0     0 -411.63430    0 1463 -452.86773 -411.63430  9.10%     - 86050s
     0     0          -    0      -452.86773 -411.63430  9.10%     - 86400s

Cutting planes:
  Gomory: 1
  Zero half: 301

Explored 1 nodes (2552565 simplex iterations) in 86400.31 seconds
Thread count was 1 (of 80 available processors)

Solution count 5: -452.868 -462.957 -470.11 ... -11664.3

Time limit reached
Best objective -4.528677343475e+02, best bound -4.116343023401e+02, gap 9.1050%
